% seed = 0

mint = 21;
% maxt = 74;

nActs = 27;
dur = [0,2,2,3,5,2,3,3,2,3,2,3,4,2,3,2,4,4,1,5,5,2,3,1,3,5,0];

nSkills = 3;
sreq = [| 0,0,0,
	| 0,1,0,
	| 0,1,1,
	| 0,1,0,
	| 0,0,1,
	| 0,1,0,
	| 0,1,0,
	| 0,1,0,
	| 0,1,0,
	| 0,1,0,
	| 0,0,1,
	| 0,0,1,
	| 0,0,1,
	| 0,1,0,
	| 0,0,1,
	| 0,1,1,
	| 0,0,1,
	| 0,1,0,
	| 0,1,0,
	| 0,1,0,
	| 0,1,1,
	| 0,1,1,
	| 0,0,1,
	| 0,1,0,
	| 0,1,0,
	| 0,0,1,
	| 0,0,0, |];

% SumOfsreq = 29;

nResources = 2;
mastery = [| false,true,false,
	| false,false,true, |];

nPrecs = 89;
pred = [1,1,1,1,1,1,1,1,1,1,1,1,1,1,1,1,1,1,1,1,1,1,1,1,1,2,2,2,3,3,3,3,4,4,4,4,4,5,5,5,5,6,6,6,6,6,7,7,7,7,8,8,8,8,9,9,9,10,10,10,11,11,11,11,12,12,12,12,13,14,14,15,15,15,16,17,18,18,19,19,19,20,20,21,22,23,24,25,26];
succ = [2,3,4,5,6,7,8,9,10,11,12,13,14,15,16,17,18,19,20,21,22,23,24,25,26,17,27,12,12,27,4,15,26,27,20,22,7,20,27,16,8,9,19,12,27,8,18,27,12,16,17,19,13,27,10,27,16,25,18,27,27,20,22,24,27,20,22,23,27,27,24,26,27,21,27,27,27,23,27,20,23,26,27,27,27,27,27,27,27];

nUnrels = 216;
unpred = [2,2,2,2,2,2,2,2,2,2,2,2,2,2,2,2,2,2,3,3,3,3,3,3,3,3,3,3,3,3,4,4,4,4,4,4,4,4,4,4,4,4,4,4,5,5,5,5,5,5,5,5,5,5,5,5,5,6,6,6,6,6,6,7,7,7,7,7,7,7,7,7,7,7,7,8,8,8,8,8,8,8,8,8,8,8,8,9,9,9,9,9,9,9,9,9,9,9,9,10,10,10,10,10,10,10,10,10,10,10,10,10,11,11,11,11,11,11,11,11,11,11,11,12,12,12,12,12,12,12,12,12,12,13,13,13,13,13,13,13,13,13,13,13,13,13,14,14,14,14,14,14,14,14,14,14,14,15,15,15,15,15,15,15,15,15,16,16,16,16,16,16,16,16,16,16,17,17,17,17,17,17,17,17,17,18,18,18,18,18,18,18,19,19,19,19,20,20,20,20,20,21,21,21,21,21,22,22,22,22,23,23,23,24,24,25];
unsucc = [3,4,5,6,7,8,9,10,11,13,14,15,16,18,19,21,24,25,5,6,8,9,10,11,13,14,17,19,24,25,5,6,8,9,10,11,13,14,15,17,19,21,24,25,6,7,9,10,11,12,14,15,18,21,22,24,25,7,11,14,15,21,24,8,9,10,11,13,14,15,17,19,21,24,25,9,10,11,12,14,15,16,18,21,22,24,25,11,12,13,14,15,17,19,20,21,22,24,26,11,12,13,14,15,16,17,19,20,21,22,24,26,12,13,14,15,16,17,18,19,21,23,25,13,14,15,16,17,18,19,21,24,25,14,15,16,17,18,19,20,21,22,23,24,25,26,15,16,17,18,19,20,21,22,23,25,26,16,17,18,19,20,22,23,24,25,17,18,19,20,21,22,23,24,25,26,18,19,20,21,22,23,24,25,26,19,20,21,22,24,25,26,21,22,24,25,21,22,23,24,25,22,23,24,25,26,23,24,25,26,24,25,26,25,26,26];

USEFUL_RES = [{},
	{1},
	{1,2},
	{1},
	{2},
	{1},
	{1},
	{1},
	{1},
	{1},
	{2},
	{2},
	{2},
	{1},
	{2},
	{1,2},
	{2},
	{1},
	{1},
	{1},
	{1,2},
	{1,2},
	{2},
	{1},
	{1},
	{2},
	{}];

POTENTIAL_ACT = [{2,3,4,6,7,8,9,10,14,16,18,19,20,21,22,24,25},
	{3,5,11,12,13,15,16,17,21,22,23,26}];
